TCS_Benchmarks/redos_fix/snort3_output_distinct_774_773_16_0.txt
[^ 
&]*
([^ 
&]*)([iI][nN][sS][eE][rR][tT][^ 
&]*[lL][oO][gG][iI][nN])([^ 
&]*)
[^ 
&]*